! tzvpp tightscf noautostart usesym

* xyz 0 1
Be 0 0 0
*
