# -*- mode: python -*-

molecule {
    Be 0.0 0.0 0.0

    symmetry c1
}

set {
    reference rhf
    scf_type direct
    df_scf_guess false
    basis tzvpp
}

energy('hf')
