$rem
method hf
basis gen
purecart 1111
scf_convergence 10
$end

$molecule
0 1
Be 0.0 0.0 0.0
$end

$basis
****
Be     0 
S   6   1.00
   4700.23656300  0.00023584
    704.82845620  0.00182438
    160.43110480  0.00939661
     45.42534734  0.03690892
     14.79833412  0.10897561
      5.35124525  0.21694285
S   2   1.00
      2.15420448  0.44695409
      0.93363744  0.20866986
S   1   1.00
      0.18791433  1.0000000
S   1   1.00
      0.74648268  1.0000000
S   1   1.00
      0.03265048  1.0000000
P   1   1.00
      3.63169171 -0.02903400
P   2   1.00
      0.71695694 -0.16877854
      0.19541933 -0.51403420
P   1   1.00
      0.06051546  1.0000000
****
$end
